NAME /Users/henri/Research/solvers/instances/idol-instances/robust/collection/cbp_Subramanyam_et_al_2020/CapBud_N25_8/models/uncertain_technology_matrix/
ROWS
 N  OBJ
 L  capacity
 L  c_4095
 L  c_4096
 L  c_4097
 L  c_4098
 L  c_4099
 L  c_4100
 L  c_4101
 L  c_4102
 L  c_4103
 L  c_4104
 L  c_4105
 L  c_4106
 L  c_4107
 L  c_4108
 L  c_4109
 L  c_4110
 L  c_4111
 L  c_4112
 L  c_4113
 L  c_4114
 L  c_4115
 L  c_4116
 L  c_4117
 L  c_4118
 L  c_4119
COLUMNS
    MARKER    'MARKER'                 'INTORG'
    x_0        OBJ        -9.65693
    x_0        c_4095     1
    x_0        capacity   1.93139
    x_1        OBJ        -0.164895
    x_1        c_4096     1
    x_1        capacity   0.032979
    x_2        OBJ        -6.73207
    x_2        c_4097     1
    x_2        capacity   1.34641
    x_3        OBJ        -5.55987
    x_3        c_4098     1
    x_3        capacity   1.11197
    x_4        OBJ        -1.37613
    x_4        c_4099     1
    x_4        capacity   0.275226
    x_5        OBJ        -7.29274
    x_5        c_4100     1
    x_5        capacity   1.45855
    x_6        OBJ        -0.030411
    x_6        c_4101     1
    x_6        capacity   0.00608219
    x_7        OBJ        -1.56609
    x_7        c_4102     1
    x_7        capacity   0.313218
    x_8        OBJ        -4.09162
    x_8        c_4103     1
    x_8        capacity   0.818324
    x_9        OBJ        -0.843549
    x_9        c_4104     1
    x_9        capacity   0.16871
    x_10       OBJ        -9.23603
    x_10       c_4105     1
    x_10       capacity   1.84721
    x_11       OBJ        -0.186899
    x_11       c_4106     1
    x_11       capacity   0.0373799
    x_12       OBJ        -9.1067
    x_12       c_4107     1
    x_12       capacity   1.82134
    x_13       OBJ        -4.11953
    x_13       c_4108     1
    x_13       capacity   0.823906
    x_14       OBJ        -3.84265
    x_14       c_4109     1
    x_14       capacity   0.768531
    x_15       OBJ        -1.48728
    x_15       c_4110     1
    x_15       capacity   0.297457
    x_16       OBJ        -8.82207
    x_16       c_4111     1
    x_16       capacity   1.76441
    x_17       OBJ        -3.73136
    x_17       c_4112     1
    x_17       capacity   0.746272
    x_18       OBJ        -4.73473
    x_18       c_4113     1
    x_18       capacity   0.946945
    x_19       OBJ        -9.62781
    x_19       c_4114     1
    x_19       capacity   1.92556
    x_20       OBJ        -0.517428
    x_20       c_4115     1
    x_20       capacity   0.103486
    x_21       OBJ        -7.11598
    x_21       c_4116     1
    x_21       capacity   1.4232
    x_22       OBJ        -3.98002
    x_22       c_4117     1
    x_22       capacity   0.796004
    x_23       OBJ        -9.24876
    x_23       c_4118     1
    x_23       capacity   1.84975
    x_24       OBJ        -9.52017
    x_24       c_4119     1
    x_24       capacity   1.90403
    y_0        OBJ        -7.72554
    y_0        c_4095     1
    y_0        capacity   1.93139
    y_1        OBJ        -0.131916
    y_1        c_4096     1
    y_1        capacity   0.032979
    y_2        OBJ        -5.38566
    y_2        c_4097     1
    y_2        capacity   1.34641
    y_3        OBJ        -4.44789
    y_3        c_4098     1
    y_3        capacity   1.11197
    y_4        OBJ        -1.10091
    y_4        c_4099     1
    y_4        capacity   0.275226
    y_5        OBJ        -5.83419
    y_5        c_4100     1
    y_5        capacity   1.45855
    y_6        OBJ        -0.0243288
    y_6        c_4101     1
    y_6        capacity   0.00608219
    y_7        OBJ        -1.25287
    y_7        c_4102     1
    y_7        capacity   0.313218
    y_8        OBJ        -3.2733
    y_8        c_4103     1
    y_8        capacity   0.818324
    y_9        OBJ        -0.674839
    y_9        c_4104     1
    y_9        capacity   0.16871
    y_10       OBJ        -7.38883
    y_10       c_4105     1
    y_10       capacity   1.84721
    y_11       OBJ        -0.14952
    y_11       c_4106     1
    y_11       capacity   0.0373799
    y_12       OBJ        -7.28536
    y_12       c_4107     1
    y_12       capacity   1.82134
    y_13       OBJ        -3.29562
    y_13       c_4108     1
    y_13       capacity   0.823906
    y_14       OBJ        -3.07412
    y_14       c_4109     1
    y_14       capacity   0.768531
    y_15       OBJ        -1.18983
    y_15       c_4110     1
    y_15       capacity   0.297457
    y_16       OBJ        -7.05765
    y_16       c_4111     1
    y_16       capacity   1.76441
    y_17       OBJ        -2.98509
    y_17       c_4112     1
    y_17       capacity   0.746272
    y_18       OBJ        -3.78778
    y_18       c_4113     1
    y_18       capacity   0.946945
    y_19       OBJ        -7.70225
    y_19       c_4114     1
    y_19       capacity   1.92556
    y_20       OBJ        -0.413942
    y_20       c_4115     1
    y_20       capacity   0.103486
    y_21       OBJ        -5.69278
    y_21       c_4116     1
    y_21       capacity   1.4232
    y_22       OBJ        -3.18402
    y_22       c_4117     1
    y_22       capacity   0.796004
    y_23       OBJ        -7.399
    y_23       c_4118     1
    y_23       capacity   1.84975
    y_24       OBJ        -7.61614
    y_24       c_4119     1
    y_24       capacity   1.90403
    MARKER    'MARKER'                 'INTEND'
RHS
    RHS       capacity   61.2959
    RHS       c_4095     1
    RHS       c_4096     1
    RHS       c_4097     1
    RHS       c_4098     1
    RHS       c_4099     1
    RHS       c_4100     1
    RHS       c_4101     1
    RHS       c_4102     1
    RHS       c_4103     1
    RHS       c_4104     1
    RHS       c_4105     1
    RHS       c_4106     1
    RHS       c_4107     1
    RHS       c_4108     1
    RHS       c_4109     1
    RHS       c_4110     1
    RHS       c_4111     1
    RHS       c_4112     1
    RHS       c_4113     1
    RHS       c_4114     1
    RHS       c_4115     1
    RHS       c_4116     1
    RHS       c_4117     1
    RHS       c_4118     1
    RHS       c_4119     1
BOUNDS
 LI BND       x_0        0
 UI BND       x_0        1
 LI BND       x_1        0
 UI BND       x_1        1
 LI BND       x_2        0
 UI BND       x_2        1
 LI BND       x_3        0
 UI BND       x_3        1
 LI BND       x_4        0
 UI BND       x_4        1
 LI BND       x_5        0
 UI BND       x_5        1
 LI BND       x_6        0
 UI BND       x_6        1
 LI BND       x_7        0
 UI BND       x_7        1
 LI BND       x_8        0
 UI BND       x_8        1
 LI BND       x_9        0
 UI BND       x_9        1
 LI BND       x_10       0
 UI BND       x_10       1
 LI BND       x_11       0
 UI BND       x_11       1
 LI BND       x_12       0
 UI BND       x_12       1
 LI BND       x_13       0
 UI BND       x_13       1
 LI BND       x_14       0
 UI BND       x_14       1
 LI BND       x_15       0
 UI BND       x_15       1
 LI BND       x_16       0
 UI BND       x_16       1
 LI BND       x_17       0
 UI BND       x_17       1
 LI BND       x_18       0
 UI BND       x_18       1
 LI BND       x_19       0
 UI BND       x_19       1
 LI BND       x_20       0
 UI BND       x_20       1
 LI BND       x_21       0
 UI BND       x_21       1
 LI BND       x_22       0
 UI BND       x_22       1
 LI BND       x_23       0
 UI BND       x_23       1
 LI BND       x_24       0
 UI BND       x_24       1
 LI BND       y_0        0
 UI BND       y_0        1
 LI BND       y_1        0
 UI BND       y_1        1
 LI BND       y_2        0
 UI BND       y_2        1
 LI BND       y_3        0
 UI BND       y_3        1
 LI BND       y_4        0
 UI BND       y_4        1
 LI BND       y_5        0
 UI BND       y_5        1
 LI BND       y_6        0
 UI BND       y_6        1
 LI BND       y_7        0
 UI BND       y_7        1
 LI BND       y_8        0
 UI BND       y_8        1
 LI BND       y_9        0
 UI BND       y_9        1
 LI BND       y_10       0
 UI BND       y_10       1
 LI BND       y_11       0
 UI BND       y_11       1
 LI BND       y_12       0
 UI BND       y_12       1
 LI BND       y_13       0
 UI BND       y_13       1
 LI BND       y_14       0
 UI BND       y_14       1
 LI BND       y_15       0
 UI BND       y_15       1
 LI BND       y_16       0
 UI BND       y_16       1
 LI BND       y_17       0
 UI BND       y_17       1
 LI BND       y_18       0
 UI BND       y_18       1
 LI BND       y_19       0
 UI BND       y_19       1
 LI BND       y_20       0
 UI BND       y_20       1
 LI BND       y_21       0
 UI BND       y_21       1
 LI BND       y_22       0
 UI BND       y_22       1
 LI BND       y_23       0
 UI BND       y_23       1
 LI BND       y_24       0
 UI BND       y_24       1
ENDATA
